(set-option :print-success false)
(set-logic QF_UF)
(declare-sort x87 0)
(declare-sort x49 0)
(declare-fun x61 () x49)
(declare-fun x70 () x49)
(declare-fun x131 () x49)
(declare-fun x66 (x49 x49) x49)
(declare-fun x94 (x49 x49) x49)
(declare-fun x1 () x49)
(declare-fun x128 () x49)
(assert (or (and (and (not (= (x66 (x66 x1 x70) x1) x70)) (and (and (not (= x70 (x66 (x66 x131 x70) x131))) (not (= x70 (x66 (x66 x61 x70) x61)))) (not (= (x66 (x66 x128 x70) x128) x70)))) (not (= x70 (x66 (x66 x70 x70) x70)))) (or (or (and (and (and (not (= (x66 (x66 x128 x128) x128) x128)) (and (not (= x128 (x66 (x66 x61 x128) x61))) (not (= x128 (x66 (x66 x131 x128) x131))))) (not (= (x66 (x66 x1 x128) x1) x128))) (not (= (x66 (x66 x70 x128) x70) x128))) (or (and (not (= x131 (x66 (x66 x70 x131) x70))) (and (and (and (not (= x131 (x66 (x66 x131 x131) x131))) (not (= (x66 (x66 x61 x131) x61) x131))) (not (= (x66 (x66 x128 x131) x128) x131))) (not (= (x66 (x66 x1 x131) x1) x131)))) (and (not (= (x66 (x66 x70 x61) x70) x61)) (and (and (not (= x61 (x66 (x66 x128 x61) x128))) (and (not (= (x66 (x66 x61 x61) x61) x61)) (not (= x61 (x66 (x66 x131 x61) x131))))) (not (= (x66 (x66 x1 x61) x1) x61)))))) (and (not (= x1 (x66 (x66 x70 x1) x70))) (and (not (= (x66 (x66 x1 x1) x1) x1)) (and (and (not (= x1 (x66 (x66 x131 x1) x131))) (not (= x1 (x66 (x66 x61 x1) x61)))) (not (= x1 (x66 (x66 x128 x1) x128)))))))))
(assert (and (and (and (and (and (and (and (not (= x61 x70)) (and (not (= x1 x61)) (and (not (= x61 x131)) (not (= x61 x128))))) (not (= x131 x128))) (not (= x1 x131))) (not (= x131 x70))) (not (= x128 x1))) (not (= x128 x70))) (not (= x1 x70))))
(assert (let ((x85 (x66 x128 x131)) (x44 (x66 x1 x128)) (x67 (x66 x131 x128)) (x26 (x66 x1 x131)) (x120 (x66 x1 x70)) (x152 (x66 x61 x70)) (x101 (x66 x131 x70)) (x149 (x66 x128 x128)) (x122 (x66 x70 x61)) (x11 (x66 x128 x61)) (x84 (x66 x61 x1)) (x146 (x66 x128 x1)) (x78 (x66 x1 x1)) (x139 (x66 x70 x131)) (x33 (x66 x1 x61)) (x98 (x66 x70 x1)) (x45 (x66 x128 x70)) (x7 (x66 x61 x61)) (x43 (x66 x131 x61)) (x154 (x66 x131 x1)) (x142 (x66 x70 x128)) (x64 (x66 x61 x128)) (x25 (x66 x131 x131)) (x112 (x66 x61 x131)) (x42 (x66 x70 x70))) (and (and (and (and (and (and (and (and (or (or (or (= x7 x128) (or (= x7 x131) (= x7 x61))) (= x1 x7)) (= x7 x70)) (or (= x112 x70) (or (= x1 x112) (or (= x112 x128) (or (= x112 x61) (= x131 x112)))))) (or (or (or (= x64 x128) (or (= x64 x131) (= x61 x64))) (= x1 x64)) (= x70 x64))) (or (or (or (= x128 x84) (or (= x84 x61) (= x84 x131))) (= x84 x1)) (= x84 x70))) (or (= x152 x70) (or (or (= x128 x152) (or (= x131 x152) (= x61 x152))) (= x152 x1)))) (and (or (= x101 x70) (or (= x1 x101) (or (or (= x101 x131) (= x101 x61)) (= x128 x101)))) (and (and (or (or (= x1 x67) (or (= x128 x67) (or (= x67 x131) (= x61 x67)))) (= x70 x67)) (and (or (= x70 x25) (or (= x1 x25) (or (= x128 x25) (or (= x25 x61) (= x25 x131))))) (or (= x43 x70) (or (= x43 x1) (or (= x43 x128) (or (= x43 x61) (= x131 x43))))))) (or (or (= x1 x154) (or (= x128 x154) (or (= x131 x154) (= x61 x154)))) (= x154 x70))))) (and (or (or (or (= x128 x45) (or (= x61 x45) (= x45 x131))) (= x45 x1)) (= x70 x45)) (and (or (= x146 x70) (or (= x1 x146) (or (= x146 x128) (or (= x131 x146) (= x61 x146))))) (and (or (or (= x1 x149) (or (or (= x149 x131) (= x61 x149)) (= x149 x128))) (= x149 x70)) (and (or (or (or (or (= x85 x131) (= x85 x61)) (= x128 x85)) (= x85 x1)) (= x70 x85)) (or (= x70 x11) (or (or (= x11 x128) (or (= x131 x11) (= x11 x61))) (= x1 x11)))))))) (and (and (and (and (or (or (= x1 x26) (or (= x128 x26) (or (= x26 x61) (= x131 x26)))) (= x26 x70)) (or (or (= x1 x33) (or (= x33 x128) (or (= x33 x61) (= x33 x131)))) (= x70 x33))) (or (= x44 x70) (or (= x44 x1) (or (or (= x44 x131) (= x61 x44)) (= x128 x44))))) (or (= x78 x70) (or (or (or (= x78 x131) (= x78 x61)) (= x128 x78)) (= x78 x1)))) (or (= x120 x70) (or (or (= x128 x120) (or (= x120 x61) (= x131 x120))) (= x1 x120))))) (and (and (and (or (or (or (= x128 x142) (or (= x131 x142) (= x61 x142))) (= x1 x142)) (= x70 x142)) (and (or (or (= x1 x122) (or (= x122 x128) (or (= x122 x61) (= x122 x131)))) (= x70 x122)) (or (or (= x1 x139) (or (or (= x139 x61) (= x131 x139)) (= x128 x139))) (= x70 x139)))) (or (= x98 x70) (or (= x1 x98) (or (= x98 x128) (or (= x131 x98) (= x61 x98)))))) (or (= x42 x70) (or (or (or (= x131 x42) (= x42 x61)) (= x42 x128)) (= x1 x42)))))))
(assert (let ((x139 (x66 x131 x70)) (x157 (x66 x70 x131)) (x20 (x66 x70 x1)) (x100 (x66 x70 x70)) (x152 (x66 x61 x1)) (x43 (x66 x61 x70)) (x159 (x66 x128 x128)) (x154 (x66 x128 x61)) (x64 (x66 x61 x131)) (x120 (x66 x131 x128)) (x112 (x66 x61 x61)) (x122 (x66 x131 x1)) (x84 (x66 x61 x128)) (x101 (x66 x1 x61)) (x15 (x66 x1 x1)) (x108 (x66 x1 x70)) (x69 (x66 x1 x128)) (x110 (x66 x70 x128)) (x24 (x66 x128 x70)) (x67 (x66 x131 x61)) (x11 (x66 x70 x61)) (x2 (x66 x1 x131)) (x78 (x66 x131 x131)) (x23 (x66 x128 x1)) (x42 (x66 x128 x131))) (let ((x133 (= x1 x78)) (x51 (= x70 x23)) (x40 (= x1 x159)) (x41 (= x70 x64)) (x33 (= x64 x61)) (x47 (= x11 x70)) (x82 (= x139 x128)) (x13 (= x61 x120)) (x134 (= x154 x128)) (x6 (= x2 x61)) (x147 (= x139 x1)) (x54 (= x131 x100)) (x125 (= x61 x108)) (x141 (= x24 x128)) (x92 (= x101 x131)) (x105 (= x1 x120)) (x59 (= x1 x23)) (x150 (= x1 x110)) (x130 (= x70 x15)) (x50 (= x128 x108)) (x121 (= x131 x15)) (x96 (= x131 x159)) (x156 (= x70 x122)) (x135 (= x1 x24)) (x123 (= x120 x131)) (x18 (= x23 x131)) (x8 (= x131 x20)) (x90 (= x131 x139)) (x137 (= x122 x128)) (x98 (= x78 x131)) (x27 (= x152 x61)) (x68 (= x24 x61)) (x60 (= x128 x78)) (x75 (= x122 x1)) (x91 (= x2 x1)) (x52 (= x43 x1)) (x117 (= x42 x70)) (x97 (= x61 x69)) (x37 (= x84 x61)) (x115 (= x131 x110)) (x153 (= x23 x61)) (x158 (= x108 x131)) (x7 (= x61 x112)) (x113 (= x157 x131)) (x77 (= x108 x70)) (x10 (= x43 x131)) (x34 (= x61 x100)) (x143 (= x61 x154)) (x95 (= x1 x42)) (x39 (= x157 x70)) (x140 (= x120 x70)) (x14 (= x131 x24)) (x30 (= x128 x84)) (x48 (= x159 x70)) (x38 (= x128 x69)) (x118 (= x15 x128)) (x73 (= x1 x15)) (x45 (= x67 x61)) (x151 (= x1 x152)) (x63 (= x23 x128)) (x26 (= x78 x61)) (x21 (= x110 x61)) (x83 (= x120 x128)) (x145 (= x11 x131)) (x56 (= x42 x61)) (x55 (= x64 x128)) (x103 (= x61 x15)) (x80 (= x2 x128)) (x85 (= x112 x128)) (x36 (= x139 x70)) (x31 (= x84 x70)) (x35 (= x1 x100)) (x149 (= x1 x112)) (x81 (= x152 x128)) (x155 (= x61 x11)) (x28 (= x101 x1)) (x132 (= x128 x157)) (x111 (= x20 x61)) (x142 (= x131 x64)) (x46 (= x61 x122)) (x99 (= x2 x131)) (x148 (= x1 x69)) (x144 (= x128 x67)) (x109 (= x128 x101)) (x89 (= x157 x1)) (x104 (= x69 x70)) (x146 (= x70 x112)) (x62 (= x61 x157)) (x102 (= x70 x101)) (x107 (= x20 x128)) (x3 (= x70 x24)) (x22 (= x1 x11)) (x138 (= x131 x42)) (x71 (= x128 x43)) (x124 (= x154 x131)) (x93 (= x159 x61)) (x119 (= x43 x70)) (x65 (= x84 x131)) (x127 (= x154 x1)) (x25 (= x131 x112)) (x29 (= x139 x61)) (x136 (= x84 x1)) (x9 (= x70 x67)) (x12 (= x61 x43)) (x129 (= x159 x128)) (x57 (= x70 x2)) (x53 (= x131 x69)) (x5 (= x152 x131)) (x106 (= x20 x1)) (x32 (= x70 x100)) (x86 (= x70 x20)) (x19 (= x100 x128)) (x4 (= x1 x67)) (x114 (= x128 x11)) (x74 (= x128 x110)) (x116 (= x1 x108)) (x44 (= x131 x67)) (x58 (= x42 x128)) (x79 (= x78 x70)) (x88 (= x70 x110)) (x72 (= x154 x70)) (x17 (= x61 x101)) (x76 (= x152 x70)) (x16 (= x122 x131)) (x126 (= x64 x1))) (and (and (and (and (and (and (and (or (or (or x127 (or x4 x149)) x28) x22) (or (or (or x136 (or x126 x149)) x151) x52)) (and (and (or (or x81 (or (or x55 x85) x30)) x71) (or (or x109 (or (or x85 x144) x134)) x114)) (and (and (or x10 (or x5 (or (or x25 x142) x65))) (or (or (or (or x25 x44) x124) x92) x145)) (and (or (or x17 (or x143 (or x45 x7))) x155) (or (or x27 (or (or x33 x7) x37)) x12))))) (and (or (or (or x31 (or x146 x41)) x76) x119) (or (or x102 (or (or x9 x146) x72)) x47))) (and (and (or (or x156 (or x140 (or x79 x9))) x36) (or (or (or (or x41 x79) x117) x57) x39)) (and (and (and (or (or x80 (or (or x60 x55) x58)) x132) (or (or (or (or x60 x144) x83) x137) x82)) (and (and (or (or (or x56 (or x33 x26)) x6) x62) (or (or (or x13 (or x45 x26)) x46) x29)) (and (or x90 (or x16 (or x123 (or x98 x44)))) (or x113 (or (or x138 (or x98 x142)) x99))))) (and (or x147 (or x75 (or (or x4 x133) x105))) (or x89 (or (or (or x133 x126) x95) x91)))))) (and (and (or (or (or x48 (or x140 x31)) x104) x88) (or (or x51 (or (or x117 x72) x48)) x3)) (and (and (and (and (or (or x53 (or (or x65 x123) x96)) x115) (or (or (or x96 (or x124 x138)) x18) x14)) (and (or x21 (or (or (or x37 x13) x93) x97)) (or (or (or (or x56 x143) x93) x153) x68))) (and (or x141 (or (or (or x58 x134) x129) x63)) (or (or x38 (or (or x30 x83) x129)) x74))) (and (or (or (or (or x136 x105) x40) x148) x150) (or (or (or x40 (or x127 x95)) x59) x135))))) (and (and (or (or (or x104 (or x57 x102)) x130) x77) (or x86 (or x130 (or (or x76 x156) x51)))) (and (and (and (or x50 (or x118 (or x38 (or x80 x109)))) (or (or (or x63 (or x81 x137)) x118) x107)) (and (and (or x158 (or x121 (or (or x92 x99) x53))) (or (or x121 (or x18 (or x16 x5))) x8)) (and (or x125 (or x103 (or x97 (or x17 x6)))) (or x111 (or (or x153 (or x27 x46)) x103))))) (and (or (or (or x148 (or x91 x28)) x73) x116) (or x106 (or x73 (or x59 (or x151 x75)))))))) (and (and (or x32 (or (or (or x36 x119) x3) x77)) (or x32 (or x86 (or (or x47 x39) x88)))) (and (and (or (or (or (or x22 x89) x150) x106) x35) (or x35 (or x116 (or (or x52 x147) x135)))) (and (and (or x19 (or (or (or x82 x71) x141) x50)) (or (or (or (or x132 x114) x74) x107) x19)) (and (and (or x34 (or (or (or x12 x29) x68) x125)) (or x34 (or (or x21 (or x62 x155)) x111))) (and (or (or (or (or x90 x10) x14) x158) x54) (or (or x8 (or x115 (or x145 x113))) x54))))))))))
(assert (let ((x7 (x66 x61 x61)) (x146 (x66 x1 x128)) (x120 (x66 x70 x1)) (x101 (x66 x70 x131)) (x154 (x66 x1 x131)) (x45 (x66 x70 x128)) (x139 (x66 x131 x70)) (x33 (x66 x61 x1)) (x98 (x66 x1 x70)) (x43 (x66 x61 x131)) (x64 (x66 x128 x61)) (x26 (x66 x131 x1)) (x78 (x66 x1 x1)) (x44 (x66 x128 x1)) (x149 (x66 x128 x128)) (x122 (x66 x61 x70)) (x112 (x66 x131 x61)) (x67 (x66 x128 x131)) (x85 (x66 x131 x128)) (x42 (x66 x70 x70)) (x142 (x66 x128 x70)) (x11 (x66 x61 x128)) (x152 (x66 x70 x61)) (x25 (x66 x131 x131)) (x84 (x66 x1 x61))) (and (and (and (and (and (and (and (not (= x139 x98)) (and (and (and (not (= x122 x98)) (and (not (= x139 x122)) (not (= x142 x122)))) (not (= x42 x122))) (not (= x139 x142)))) (not (= x42 x139))) (not (= x142 x98))) (not (= x42 x142))) (not (= x42 x98))) (and (and (and (and (not (= x101 x154)) (and (and (and (and (not (= x25 x154)) (and (not (= x25 x67)) (and (and (and (not (= x25 x43)) (not (= x43 x67))) (not (= x43 x154))) (not (= x43 x101))))) (not (= x25 x101))) (not (= x154 x67))) (not (= x101 x67)))) (and (and (not (= x152 x64)) (and (not (= x84 x64)) (and (and (and (not (= x112 x64)) (and (and (not (= x7 x84)) (and (not (= x7 x64)) (not (= x112 x7)))) (not (= x152 x7)))) (not (= x112 x84))) (not (= x152 x112))))) (not (= x152 x84)))) (and (not (= x45 x146)) (and (and (not (= x149 x146)) (and (and (not (= x146 x85)) (and (not (= x85 x149)) (and (and (and (not (= x11 x85)) (not (= x11 x149))) (not (= x146 x11))) (not (= x45 x11))))) (not (= x45 x85)))) (not (= x149 x45))))) (and (not (= x78 x120)) (and (and (not (= x78 x44)) (and (not (= x26 x120)) (and (not (= x26 x78)) (and (and (not (= x120 x33)) (and (and (not (= x33 x26)) (not (= x44 x33))) (not (= x33 x78)))) (not (= x44 x26)))))) (not (= x120 x44)))))) (and (and (not (= x120 x42)) (and (not (= x45 x42)) (and (and (not (= x101 x42)) (and (not (= x120 x101)) (and (and (and (and (not (= x152 x101)) (not (= x152 x45))) (not (= x120 x152))) (not (= x152 x42))) (not (= x45 x101))))) (not (= x45 x120))))) (and (and (and (and (and (not (= x139 x85)) (and (and (and (not (= x26 x25)) (and (not (= x85 x25)) (and (and (not (= x26 x112)) (and (not (= x25 x112)) (not (= x85 x112)))) (not (= x139 x112))))) (not (= x139 x25))) (not (= x85 x26)))) (not (= x26 x139))) (and (and (not (= x122 x11)) (and (and (and (and (and (not (= x122 x7)) (and (not (= x33 x7)) (and (not (= x7 x43)) (not (= x7 x11))))) (not (= x11 x43))) (not (= x43 x33))) (not (= x43 x122))) (not (= x33 x11)))) (not (= x122 x33)))) (and (not (= x44 x142)) (and (and (and (and (not (= x44 x67)) (and (not (= x149 x67)) (and (not (= x142 x64)) (and (and (not (= x64 x67)) (not (= x64 x149))) (not (= x64 x44)))))) (not (= x142 x67))) (not (= x149 x44))) (not (= x149 x142))))) (and (and (and (not (= x146 x78)) (and (and (not (= x154 x78)) (and (not (= x154 x146)) (and (not (= x98 x84)) (and (not (= x84 x78)) (and (not (= x84 x146)) (not (= x154 x84))))))) (not (= x154 x98)))) (not (= x146 x98))) (not (= x98 x78))))))))
(assert (and (and (and (or (= x128 (x66 x70 (x66 x128 x70))) (or (or (or (= x128 (x66 x61 (x66 x128 x61))) (= (x66 x131 (x66 x128 x131)) x128)) (= x128 (x66 x128 (x66 x128 x128)))) (= (x66 x1 (x66 x128 x1)) x128))) (and (or (= x131 (x66 x70 (x66 x131 x70))) (or (= x131 (x66 x1 (x66 x131 x1))) (or (or (= x131 (x66 x61 (x66 x131 x61))) (= (x66 x131 (x66 x131 x131)) x131)) (= x131 (x66 x128 (x66 x131 x128)))))) (or (or (= (x66 x1 (x66 x61 x1)) x61) (or (or (= x61 (x66 x131 (x66 x61 x131))) (= x61 (x66 x61 (x66 x61 x61)))) (= (x66 x128 (x66 x61 x128)) x61))) (= x61 (x66 x70 (x66 x61 x70)))))) (or (or (= x1 (x66 x1 (x66 x1 x1))) (or (= (x66 x128 (x66 x1 x128)) x1) (or (= x1 (x66 x131 (x66 x1 x131))) (= x1 (x66 x61 (x66 x1 x61)))))) (= x1 (x66 x70 (x66 x1 x70))))) (or (= x70 (x66 x70 (x66 x70 x70))) (or (or (= x70 (x66 x128 (x66 x70 x128))) (or (= x70 (x66 x61 (x66 x70 x61))) (= (x66 x131 (x66 x70 x131)) x70))) (= x70 (x66 x1 (x66 x70 x1)))))))
(assert (or (or (and (not (= x70 (x66 x1 (x66 x1 x70)))) (and (not (= (x66 x1 (x66 x1 x1)) x1)) (and (and (not (= x131 (x66 x1 (x66 x1 x131)))) (not (= (x66 x1 (x66 x1 x61)) x61))) (not (= (x66 x1 (x66 x1 x128)) x128))))) (or (or (and (and (and (not (= x128 (x66 x61 (x66 x61 x128)))) (and (not (= x131 (x66 x61 (x66 x61 x131)))) (not (= x61 (x66 x61 (x66 x61 x61)))))) (not (= x1 (x66 x61 (x66 x61 x1))))) (not (= (x66 x61 (x66 x61 x70)) x70))) (and (and (not (= x1 (x66 x131 (x66 x131 x1)))) (and (and (not (= x131 (x66 x131 (x66 x131 x131)))) (not (= (x66 x131 (x66 x131 x61)) x61))) (not (= (x66 x131 (x66 x131 x128)) x128)))) (not (= (x66 x131 (x66 x131 x70)) x70)))) (and (and (not (= (x66 x128 (x66 x128 x1)) x1)) (and (and (not (= x61 (x66 x128 (x66 x128 x61)))) (not (= x131 (x66 x128 (x66 x128 x131))))) (not (= (x66 x128 (x66 x128 x128)) x128)))) (not (= (x66 x128 (x66 x128 x70)) x70))))) (and (not (= (x66 x70 (x66 x70 x70)) x70)) (and (and (and (not (= x131 (x66 x70 (x66 x70 x131)))) (not (= x61 (x66 x70 (x66 x70 x61))))) (not (= x128 (x66 x70 (x66 x70 x128))))) (not (= x1 (x66 x70 (x66 x70 x1))))))))
(assert (let ((x64 (x66 x128 x61)) (x44 (x66 x128 x1)) (x98 (x66 x1 x70)) (x25 (x66 x131 x131)) (x45 (x66 x70 x128)) (x85 (x66 x131 x128)) (x152 (x66 x70 x61)) (x43 (x66 x61 x131)) (x84 (x66 x1 x61)) (x139 (x66 x131 x70)) (x11 (x66 x61 x128)) (x146 (x66 x1 x128)) (x154 (x66 x1 x131)) (x67 (x66 x128 x131)) (x7 (x66 x61 x61)) (x142 (x66 x128 x70)) (x33 (x66 x61 x1)) (x26 (x66 x131 x1)) (x42 (x66 x70 x70)) (x122 (x66 x61 x70)) (x78 (x66 x1 x1)) (x101 (x66 x70 x131)) (x120 (x66 x70 x1)) (x149 (x66 x128 x128)) (x112 (x66 x131 x61))) (or (or (and (and (and (and (not (= (x66 x33 x33) x61)) (not (= (x66 x26 x26) x131))) (not (= (x66 x44 x44) x128))) (not (= x1 (x66 x78 x78)))) (not (= x70 (x66 x120 x120)))) (or (and (and (and (and (not (= x61 (x66 x11 x11))) (not (= (x66 x85 x85) x131))) (not (= x128 (x66 x149 x149)))) (not (= x1 (x66 x146 x146)))) (not (= x70 (x66 x45 x45)))) (or (and (not (= x70 (x66 x101 x101))) (and (not (= (x66 x154 x154) x1)) (and (and (not (= x131 (x66 x25 x25))) (not (= (x66 x43 x43) x61))) (not (= x128 (x66 x67 x67)))))) (and (not (= x70 (x66 x152 x152))) (and (and (and (not (= x61 (x66 x7 x7))) (not (= (x66 x112 x112) x131))) (not (= x128 (x66 x64 x64)))) (not (= (x66 x84 x84) x1))))))) (and (not (= x70 (x66 x42 x42))) (and (not (= (x66 x98 x98) x1)) (and (and (not (= (x66 x139 x139) x131)) (not (= (x66 x122 x122) x61))) (not (= (x66 x142 x142) x128))))))))
(assert (let ((x84 (x66 x1 x1)) (x152 (x66 x70 x70)) (x64 (x66 x128 x128)) (x112 (x66 x131 x131)) (x7 (x66 x61 x61))) (or (and (not (= x70 x152)) (and (not (= x84 x70)) (and (and (not (= x7 x70)) (not (= x70 x112))) (not (= x70 x64))))) (or (or (and (not (= x128 x152)) (and (and (and (not (= x128 x7)) (not (= x112 x128))) (not (= x128 x64))) (not (= x128 x84)))) (or (and (not (= x152 x131)) (and (and (not (= x64 x131)) (and (not (= x112 x131)) (not (= x131 x7)))) (not (= x84 x131)))) (and (and (and (not (= x61 x64)) (and (not (= x61 x7)) (not (= x112 x61)))) (not (= x84 x61))) (not (= x61 x152))))) (and (not (= x1 x152)) (and (not (= x84 x1)) (and (not (= x1 x64)) (and (not (= x7 x1)) (not (= x1 x112))))))))))
(assert (let ((x41 (x66 x70 x61)) (x55 (x66 x131 x61)) (x83 (x66 x70 x128)) (x30 (x66 x128 x70)) (x69 (x66 x128 x128)) (x126 (x66 x61 x1)) (x93 (x66 x128 x131)) (x2 (x66 x61 x61)) (x60 (x66 x61 x128)) (x124 (x66 x131 x1)) (x72 (x66 x1 x1)) (x159 (x66 x131 x70)) (x4 (x66 x128 x61)) (x13 (x66 x131 x128)) (x9 (x66 x61 x70)) (x144 (x66 x61 x131)) (x133 (x66 x1 x61)) (x140 (x66 x70 x1)) (x134 (x66 x128 x1)) (x138 (x66 x1 x131)) (x56 (x66 x131 x131)) (x23 (x66 x70 x131)) (x31 (x66 x1 x70)) (x58 (x66 x1 x128)) (x92 (x66 x70 x70))) (let ((x5 (= x56 x128)) (x74 (= x2 x70)) (x78 (= x23 x61)) (x121 (= x128 x93)) (x135 (= x58 x70)) (x52 (= x138 x70)) (x71 (= x144 x70)) (x47 (= x70 x41)) (x148 (= x128 x9)) (x18 (= x60 x128)) (x108 (= x144 x128)) (x99 (= x131 x92)) (x110 (= x69 x131)) (x37 (= x56 x131)) (x28 (= x72 x128)) (x12 (= x1 x69)) (x25 (= x93 x61)) (x22 (= x13 x70)) (x29 (= x133 x1)) (x50 (= x70 x60)) (x86 (= x159 x70)) (x95 (= x131 x138)) (x158 (= x1 x30)) (x81 (= x138 x128)) (x32 (= x70 x92)) (x113 (= x1 x134)) (x35 (= x72 x70)) (x154 (= x61 x69)) (x151 (= x23 x128)) (x88 (= x23 x70)) (x54 (= x140 x1)) (x91 (= x128 x41)) (x101 (= x133 x61)) (x15 (= x55 x128)) (x48 (= x131 x41)) (x40 (= x134 x131)) (x90 (= x1 x159)) (x142 (= x140 x61)) (x8 (= x1 x41)) (x59 (= x83 x128)) (x107 (= x70 x55)) (x89 (= x70 x69)) (x63 (= x128 x58)) (x104 (= x128 x92)) (x150 (= x133 x70)) (x112 (= x55 x61)) (x127 (= x131 x126)) (x77 (= x31 x70)) (x39 (= x9 x70)) (x136 (= x124 x131)) (x109 (= x128 x69)) (x20 (= x13 x128)) (x24 (= x131 x4)) (x68 (= x126 x1)) (x46 (= x131 x30)) (x44 (= x9 x61)) (x105 (= x131 x58)) (x57 (= x128 x31)) (x62 (= x1 x60)) (x53 (= x128 x2)) (x75 (= x128 x159)) (x123 (= x131 x93)) (x34 (= x124 x1)) (x152 (= x61 x4)) (x43 (= x61 x60)) (x85 (= x138 x61)) (x111 (= x1 x13)) (x3 (= x140 x70)) (x26 (= x61 x41)) (x115 (= x1 x72)) (x103 (= x31 x131)) (x119 (= x70 x83)) (x106 (= x126 x70)) (x149 (= x124 x61)) (x17 (= x131 x9)) (x137 (= x124 x128)) (x65 (= x60 x131)) (x14 (= x1 x83)) (x118 (= x134 x128)) (x27 (= x83 x131)) (x64 (= x144 x61)) (x96 (= x13 x131)) (x139 (= x61 x30)) (x120 (= x159 x61)) (x97 (= x131 x159)) (x84 (= x56 x61)) (x73 (= x30 x128)) (x42 (= x61 x92)) (x7 (= x2 x61)) (x141 (= x4 x70)) (x51 (= x1 x144)) (x130 (= x56 x1)) (x100 (= x1 x9)) (x114 (= x31 x1)) (x156 (= x1 x55)) (x67 (= x61 x13)) (x79 (= x131 x55)) (x153 (= x140 x131)) (x147 (= x70 x124)) (x16 (= x4 x128)) (x157 (= x2 x131)) (x82 (= x70 x56)) (x98 (= x61 x31)) (x36 (= x70 x30)) (x45 (= x61 x134)) (x117 (= x72 x131)) (x122 (= x61 x83)) (x145 (= x1 x58)) (x143 (= x131 x144)) (x80 (= x133 x128)) (x116 (= x70 x134)) (x132 (= x1 x92)) (x76 (= x2 x1)) (x21 (= x1 x93)) (x19 (= x93 x70)) (x11 (= x126 x61)) (x33 (= x61 x72)) (x38 (= x128 x126)) (x146 (= x58 x61)) (x6 (= x131 x23)) (x155 (= x4 x1)) (x129 (= x131 x133)) (x102 (= x128 x140)) (x125 (= x138 x1)) (x10 (= x23 x1))) (and (and (or (or (and x132 x132) (or (or (or (and x10 x90) (and x8 x100)) (and x14 x158)) (and x54 x114))) (or (or (or (or (or (or (and x111 x21) (or (and x51 x156) (and x130 x130))) (and x125 x34)) (and x90 x10)) (or (or (or (or (and x76 x76) (and x156 x51)) (and x62 x155)) (and x29 x68)) (and x8 x100))) (or (or (or (and x12 x12) (or (and x62 x155) (and x111 x21))) (and x113 x145)) (and x14 x158))) (or (and x54 x114) (or (and x115 x115) (or (or (and x34 x125) (and x29 x68)) (and x145 x113)))))) (and (and (or (or (or (or (or (or (and x129 x127) (and x95 x136)) (and x105 x40)) (and x117 x117)) (and x153 x103)) (or (or (or (or (or (and x96 x123) (or (and x37 x37) (and x143 x79))) (and x95 x136)) (and x97 x6)) (or (or (or (or (and x79 x143) (and x157 x157)) (and x24 x65)) (and x127 x129)) (and x48 x17))) (or (or (and x105 x40) (or (or (and x24 x65) (and x96 x123)) (and x110 x110))) (and x46 x27)))) (or (and x99 x99) (or (and x153 x103) (or (or (and x6 x97) (and x48 x17)) (and x46 x27))))) (or (or (and x42 x42) (or (and x142 x98) (or (or (and x44 x26) (and x120 x78)) (and x139 x122)))) (or (or (and x142 x98) (or (and x33 x33) (or (and x146 x45) (or (and x85 x149) (and x11 x101))))) (or (or (or (and x44 x26) (or (or (and x43 x152) (or (and x112 x64) (and x7 x7))) (and x101 x11))) (or (and x120 x78) (or (and x149 x85) (or (or (and x112 x64) (and x84 x84)) (and x25 x67))))) (or (or (or (and x154 x154) (or (and x43 x152) (and x25 x67))) (and x45 x146)) (and x139 x122)))))) (or (or (or (and x102 x57) (or (and x28 x28) (or (or (and x81 x137) (and x38 x80)) (and x63 x118)))) (or (or (or (or (or (or (and x108 x15) (and x53 x53)) (and x18 x16)) (and x38 x80)) (and x91 x148)) (or (and x75 x151) (or (and x137 x81) (or (and x20 x121) (or (and x5 x5) (and x108 x15)))))) (or (and x73 x59) (or (or (or (and x20 x121) (and x16 x18)) (and x109 x109)) (and x118 x63))))) (or (and x104 x104) (or (or (or (and x148 x91) (and x151 x75)) (and x73 x59)) (and x102 x57)))))) (or (or (or (or (or (or (or (or (and x107 x71) (and x82 x82)) (and x19 x22)) (and x147 x52)) (and x88 x86)) (or (and x39 x47) (or (and x150 x106) (or (or (and x107 x71) (and x74 x74)) (and x50 x141))))) (or (and x119 x36) (or (and x116 x135) (or (or (and x50 x141) (and x19 x22)) (and x89 x89))))) (or (or (or (and x116 x135) (or (and x106 x150) (and x52 x147))) (and x35 x35)) (and x3 x77))) (or (and x32 x32) (or (and x3 x77) (or (or (and x47 x39) (and x86 x88)) (and x36 x119)))))))))
(assert (or (or (and (and (not (= x1 (x66 (x66 x1 x1) x1))) (and (not (= (x66 (x66 x1 x128) x1) x128)) (and (not (= x131 (x66 (x66 x1 x131) x1))) (not (= x61 (x66 (x66 x1 x61) x1)))))) (not (= (x66 (x66 x1 x70) x1) x70))) (or (and (not (= x70 (x66 (x66 x128 x70) x128))) (and (not (= (x66 (x66 x128 x1) x128) x1)) (and (not (= (x66 (x66 x128 x128) x128) x128)) (and (not (= x131 (x66 (x66 x128 x131) x128))) (not (= (x66 (x66 x128 x61) x128) x61)))))) (or (and (and (and (not (= (x66 (x66 x131 x128) x131) x128)) (and (not (= x61 (x66 (x66 x131 x61) x131))) (not (= (x66 (x66 x131 x131) x131) x131)))) (not (= (x66 (x66 x131 x1) x131) x1))) (not (= (x66 (x66 x131 x70) x131) x70))) (and (not (= x70 (x66 (x66 x61 x70) x61))) (and (and (and (not (= (x66 (x66 x61 x131) x61) x131)) (not (= (x66 (x66 x61 x61) x61) x61))) (not (= x128 (x66 (x66 x61 x128) x61)))) (not (= x1 (x66 (x66 x61 x1) x61)))))))) (and (and (not (= (x66 (x66 x70 x1) x70) x1)) (and (not (= (x66 (x66 x70 x128) x70) x128)) (and (not (= (x66 (x66 x70 x131) x70) x131)) (not (= x61 (x66 (x66 x70 x61) x70)))))) (not (= (x66 (x66 x70 x70) x70) x70)))))
(assert (let ((x78 (x66 x1 x1)) (x149 (x66 x128 x128)) (x120 (x66 x70 x1)) (x45 (x66 x70 x128)) (x142 (x66 x128 x70)) (x7 (x66 x61 x61)) (x139 (x66 x131 x70)) (x152 (x66 x70 x61)) (x84 (x66 x1 x61)) (x112 (x66 x131 x61)) (x154 (x66 x1 x131)) (x98 (x66 x1 x70)) (x85 (x66 x131 x128)) (x11 (x66 x61 x128)) (x122 (x66 x61 x70)) (x43 (x66 x61 x131)) (x25 (x66 x131 x131)) (x146 (x66 x1 x128)) (x64 (x66 x128 x61)) (x101 (x66 x70 x131)) (x42 (x66 x70 x70)) (x33 (x66 x61 x1)) (x67 (x66 x128 x131)) (x26 (x66 x131 x1)) (x44 (x66 x128 x1))) (or (or (or (or (and (and (and (and (not (= (x66 x7 x61) x7)) (not (= x112 (x66 x112 x131)))) (not (= (x66 x64 x128) x64))) (not (= (x66 x84 x1) x84))) (not (= (x66 x152 x70) x152))) (and (and (not (= x154 (x66 x154 x1))) (and (and (not (= (x66 x25 x131) x25)) (not (= (x66 x43 x61) x43))) (not (= x67 (x66 x67 x128))))) (not (= x101 (x66 x101 x70))))) (and (not (= (x66 x45 x70) x45)) (and (not (= (x66 x146 x1) x146)) (and (not (= x149 (x66 x149 x128))) (and (not (= x85 (x66 x85 x131))) (not (= x11 (x66 x11 x61)))))))) (and (not (= (x66 x120 x70) x120)) (and (not (= x78 (x66 x78 x1))) (and (and (not (= x26 (x66 x26 x131))) (not (= x33 (x66 x33 x61)))) (not (= (x66 x44 x128) x44)))))) (and (not (= (x66 x42 x70) x42)) (and (not (= x98 (x66 x98 x1))) (and (and (not (= x122 (x66 x122 x61))) (not (= (x66 x139 x131) x139))) (not (= (x66 x142 x128) x142))))))))
(assert (let ((x7 (x66 x61 x61)) (x112 (x66 x131 x131)) (x152 (x66 x70 x70)) (x64 (x66 x128 x128)) (x84 (x66 x1 x1))) (or (or (or (not (= (x66 x64 x64) x64)) (or (not (= x112 (x66 x112 x112))) (not (= x7 (x66 x7 x7))))) (not (= (x66 x84 x84) x84))) (not (= x152 (x66 x152 x152))))))
(assert (let ((x154 (x66 x128 x128)) (x85 (x66 x1 x131)) (x33 (x66 x1 x1)) (x64 (x66 x61 x131)) (x149 (x66 x131 x1)) (x45 (x66 x128 x1)) (x43 (x66 x61 x128)) (x26 (x66 x70 x61)) (x98 (x66 x1 x70)) (x112 (x66 x131 x61)) (x101 (x66 x1 x61)) (x84 (x66 x131 x131)) (x42 (x66 x70 x70)) (x7 (x66 x61 x61)) (x11 (x66 x61 x1)) (x78 (x66 x70 x131)) (x120 (x66 x131 x70)) (x122 (x66 x70 x128)) (x44 (x66 x61 x70)) (x146 (x66 x1 x128)) (x152 (x66 x128 x61)) (x142 (x66 x70 x1)) (x139 (x66 x128 x70)) (x25 (x66 x128 x131)) (x67 (x66 x131 x128))) (or (or (or (or (and (and (and (= x67 x25) (and (= x84 x84) (= x64 x112))) (= x149 x85)) (= x78 x120)) (and (and (and (and (= x112 x64) (= x7 x7)) (= x152 x43)) (= x11 x101)) (= x44 x26))) (and (and (= x146 x45) (and (= x154 x154) (and (= x152 x43) (= x67 x25)))) (= x139 x122))) (and (and (and (and (= x11 x101) (= x85 x149)) (= x45 x146)) (= x33 x33)) (= x142 x98))) (and (and (= x98 x142) (and (= x122 x139) (and (= x26 x44) (= x120 x78)))) (= x42 x42)))))
(assert (and (and (and (= (x66 x128 x61) x131) (= (x66 x70 x70) x61)) (= (x66 x61 x1) x128)) (= x70 (x66 x1 x1))))
(assert (not (and (= (x66 x70 x70) x61) (and (and (and (and (and (= x131 (x66 x1 x70)) (and (and (= (x66 x1 x128) x1) (and (and (= x128 (x66 x1 x61)) (and (and (and (and (and (and (= (x66 x131 x70) x70) (and (= (x66 x131 x1) x61) (and (= (x66 x131 x128) x131) (and (and (and (= (x66 x61 x70) x1) (and (and (and (= (x66 x61 x61) x61) (= x131 (x66 x61 x131))) (= x70 (x66 x61 x128))) (= x128 (x66 x61 x1)))) (= (x66 x131 x61) x1)) (= (x66 x131 x131) x128))))) (= x131 (x66 x128 x61))) (= x70 (x66 x128 x131))) (= x61 (x66 x128 x128))) (= (x66 x128 x1) x1)) (= x128 (x66 x128 x70)))) (= (x66 x1 x131) x61))) (= (x66 x1 x1) x70))) (= (x66 x70 x61) x70)) (= x1 (x66 x70 x131))) (= x128 (x66 x70 x128))) (= x131 (x66 x70 x1))))))
(assert (let ((x152 (x66 x61 x70)) (x120 (x66 x1 x70)) (x67 (x66 x131 x128)) (x154 (x66 x131 x1)) (x43 (x66 x131 x61)) (x98 (x66 x70 x1)) (x33 (x66 x1 x61)) (x142 (x66 x70 x128)) (x149 (x66 x128 x128)) (x26 (x66 x1 x131)) (x122 (x66 x70 x61)) (x85 (x66 x128 x131)) (x44 (x66 x1 x128)) (x11 (x66 x128 x61)) (x84 (x66 x61 x1)) (x101 (x66 x131 x70)) (x7 (x66 x61 x61)) (x25 (x66 x131 x131)) (x112 (x66 x61 x131)) (x64 (x66 x61 x128)) (x78 (x66 x1 x1)) (x139 (x66 x70 x131)) (x146 (x66 x128 x1)) (x42 (x66 x70 x70)) (x45 (x66 x128 x70))) (or (or (or (and (not (= (x66 x45 x45) x70)) (and (and (and (not (= x61 (x66 x11 x11))) (not (= x131 (x66 x85 x85)))) (not (= x128 (x66 x149 x149)))) (not (= (x66 x146 x146) x1)))) (or (and (and (not (= x1 (x66 x154 x154))) (and (and (not (= x131 (x66 x25 x25))) (not (= x61 (x66 x43 x43)))) (not (= (x66 x67 x67) x128)))) (not (= x70 (x66 x101 x101)))) (and (and (and (and (not (= (x66 x112 x112) x131)) (not (= (x66 x7 x7) x61))) (not (= (x66 x64 x64) x128))) (not (= x1 (x66 x84 x84)))) (not (= (x66 x152 x152) x70))))) (and (and (not (= x1 (x66 x78 x78))) (and (and (not (= (x66 x33 x33) x61)) (not (= x131 (x66 x26 x26)))) (not (= (x66 x44 x44) x128)))) (not (= (x66 x120 x120) x70)))) (and (and (and (and (not (= (x66 x122 x122) x61)) (not (= x131 (x66 x139 x139)))) (not (= x128 (x66 x142 x142)))) (not (= (x66 x98 x98) x1))) (not (= x70 (x66 x42 x42)))))))
(assert (and (or (not (= (x66 (x66 x70 x70) x70) x70)) (or (or (or (not (= x61 (x66 (x66 x61 x70) x70))) (not (= (x66 (x66 x131 x70) x70) x131))) (not (= x128 (x66 (x66 x128 x70) x70)))) (not (= x1 (x66 (x66 x1 x70) x70))))) (and (and (and (or (or (or (not (= x128 (x66 (x66 x128 x131) x131))) (or (not (= (x66 (x66 x61 x131) x131) x61)) (not (= x131 (x66 (x66 x131 x131) x131))))) (not (= x1 (x66 (x66 x1 x131) x131)))) (not (= x70 (x66 (x66 x70 x131) x131)))) (or (not (= (x66 (x66 x70 x61) x61) x70)) (or (or (not (= x128 (x66 (x66 x128 x61) x61))) (or (not (= (x66 (x66 x61 x61) x61) x61)) (not (= x131 (x66 (x66 x131 x61) x61))))) (not (= (x66 (x66 x1 x61) x61) x1))))) (or (not (= x70 (x66 (x66 x70 x128) x128))) (or (or (not (= (x66 (x66 x128 x128) x128) x128)) (or (not (= x131 (x66 (x66 x131 x128) x128))) (not (= x61 (x66 (x66 x61 x128) x128))))) (not (= (x66 (x66 x1 x128) x128) x1))))) (or (or (or (not (= x128 (x66 (x66 x128 x1) x1))) (or (not (= (x66 (x66 x61 x1) x1) x61)) (not (= (x66 (x66 x131 x1) x1) x131)))) (not (= (x66 (x66 x1 x1) x1) x1))) (not (= (x66 (x66 x70 x1) x1) x70))))))
(assert (or (and (not (= (x66 x70 x70) x70)) (and (and (and (not (= x131 (x66 x131 x70))) (not (= (x66 x61 x70) x61))) (not (= x128 (x66 x128 x70)))) (not (= (x66 x1 x70) x1)))) (or (and (not (= x70 (x66 x70 x1))) (and (and (and (not (= (x66 x61 x1) x61)) (not (= x131 (x66 x131 x1)))) (not (= x128 (x66 x128 x1)))) (not (= (x66 x1 x1) x1)))) (or (or (and (not (= (x66 x70 x61) x70)) (and (and (not (= (x66 x128 x61) x128)) (and (not (= x61 (x66 x61 x61))) (not (= x131 (x66 x131 x61))))) (not (= x1 (x66 x1 x61))))) (and (not (= x70 (x66 x70 x131))) (and (not (= x1 (x66 x1 x131))) (and (not (= (x66 x128 x131) x128)) (and (not (= x61 (x66 x61 x131))) (not (= x131 (x66 x131 x131)))))))) (and (and (not (= (x66 x1 x128) x1)) (and (and (not (= x61 (x66 x61 x128))) (not (= (x66 x131 x128) x131))) (not (= x128 (x66 x128 x128))))) (not (= (x66 x70 x128) x70)))))))
(assert (or (and (not (= x70 (x66 (x66 x70 x70) x70))) (and (not (= x1 (x66 (x66 x1 x70) x70))) (and (and (not (= x61 (x66 (x66 x61 x70) x70))) (not (= (x66 (x66 x131 x70) x70) x131))) (not (= (x66 (x66 x128 x70) x70) x128))))) (or (or (or (and (and (and (and (not (= x61 (x66 (x66 x61 x61) x61))) (not (= (x66 (x66 x131 x61) x61) x131))) (not (= x128 (x66 (x66 x128 x61) x61)))) (not (= (x66 (x66 x1 x61) x61) x1))) (not (= (x66 (x66 x70 x61) x61) x70))) (and (and (and (and (not (= x131 (x66 (x66 x131 x131) x131))) (not (= (x66 (x66 x61 x131) x131) x61))) (not (= (x66 (x66 x128 x131) x131) x128))) (not (= (x66 (x66 x1 x131) x131) x1))) (not (= x70 (x66 (x66 x70 x131) x131))))) (and (not (= (x66 (x66 x70 x128) x128) x70)) (and (not (= (x66 (x66 x1 x128) x128) x1)) (and (not (= (x66 (x66 x128 x128) x128) x128)) (and (not (= x61 (x66 (x66 x61 x128) x128))) (not (= x131 (x66 (x66 x131 x128) x128)))))))) (and (and (and (not (= x128 (x66 (x66 x128 x1) x1))) (and (not (= (x66 (x66 x131 x1) x1) x131)) (not (= x61 (x66 (x66 x61 x1) x1))))) (not (= x1 (x66 (x66 x1 x1) x1)))) (not (= x70 (x66 (x66 x70 x1) x1)))))))
(assert (or (or (or (= (x66 x128 x128) x128) (or (= x131 (x66 x131 x131)) (= x61 (x66 x61 x61)))) (= x1 (x66 x1 x1))) (= (x66 x70 x70) x70)))
(check-sat)
(exit)
